\ Model QCP
\ LP format - for model browsing. Use MPS format to capture full model detail.
Minimize
  z + 1.27 y
Subject To
 Cut_0: z + [ 0.0269642026964203 y ^2 ] >= 4899.634123663413
 Cut_1: z + [ 0.0111456239722274 y ^2 ] >= 4800.704732322311
Bounds
 4731 <= z <= 6688
 54.74486277268398 <= y <= 79.08223567907018
End
